c instance by G2
c solution = 111101101
c Known solution cost is 339 
p cnf 9 30
w 4 45 77 17 36 89 6 19 46
-7 9 -1 0
-8 -9 5 0
-1 -5 -2 0
5 6 2 0
-1 -7 -5 0
-8 -3 -4 0
-1 -8 5 0
-9 -3 2 0
-7 -4 6 0
-1 9 2 0
-3 7 -6 0
-2 1 -5 0
6 -9 -8 0
7 9 -3 0
8 -6 7 0
-2 -7 -5 0
-7 -1 -8 0
-2 6 7 0
6 -3 -8 0
-4 -7 6 0
-2 -9 4 0
-6 -4 3 0
-8 -9 1 0
3 1 -4 0
-2 8 9 0
8 -6 1 0
-2 -4 -8 0
-6 3 -9 0
-1 4 -6 0
-1 -5 4 0
